p cnf 402 3264
1 -121 0
1 -122 0
121 -121 0
122 -122 0
16 -133 0
16 -134 0
133 -133 0
134 -134 0
31 -145 0
31 -146 0
145 -145 0
146 -146 0
46 -157 0
46 -158 0
157 -157 0
158 -158 0
61 -169 0
61 -170 0
169 -169 0
170 -170 0
76 -181 0
76 -182 0
181 -181 0
182 -182 0
91 -193 0
91 -194 0
193 -193 0
194 -194 0
106 -205 0
106 -206 0
205 -205 0
206 -206 0
-2 -121 0
-2 -122 0
121 -121 0
122 -122 0
-17 -133 0
-17 -134 0
133 -133 0
134 -134 0
-32 -145 0
-32 -146 0
145 -145 0
146 -146 0
-47 -157 0
-47 -158 0
157 -157 0
158 -158 0
-62 -169 0
-62 -170 0
169 -169 0
170 -170 0
-77 -181 0
-77 -182 0
181 -181 0
182 -182 0
-92 -193 0
-92 -194 0
193 -193 0
194 -194 0
-107 -205 0
-107 -206 0
205 -205 0
206 -206 0
3 -121 0
3 -122 0
121 -121 0
122 -122 0
18 -133 0
18 -134 0
133 -133 0
134 -134 0
33 -145 0
33 -146 0
145 -145 0
146 -146 0
48 -157 0
48 -158 0
157 -157 0
158 -158 0
63 -169 0
63 -170 0
169 -169 0
170 -170 0
78 -181 0
78 -182 0
181 -181 0
182 -182 0
93 -193 0
93 -194 0
193 -193 0
194 -194 0
108 -205 0
108 -206 0
205 -205 0
206 -206 0
-4 -121 0
-4 -122 0
121 -121 0
122 -122 0
-19 -133 0
-19 -134 0
133 -133 0
134 -134 0
-34 -145 0
-34 -146 0
145 -145 0
146 -146 0
-49 -157 0
-49 -158 0
157 -157 0
158 -158 0
-64 -169 0
-64 -170 0
169 -169 0
170 -170 0
-79 -181 0
-79 -182 0
181 -181 0
182 -182 0
-94 -193 0
-94 -194 0
193 -193 0
194 -194 0
-109 -205 0
-109 -206 0
205 -205 0
206 -206 0
-5 -121 0
-5 -122 0
121 -121 0
122 -122 0
-20 -133 0
-20 -134 0
133 -133 0
134 -134 0
-35 -145 0
-35 -146 0
145 -145 0
146 -146 0
-50 -157 0
-50 -158 0
157 -157 0
158 -158 0
-65 -169 0
-65 -170 0
169 -169 0
170 -170 0
-80 -181 0
-80 -182 0
181 -181 0
182 -182 0
-95 -193 0
-95 -194 0
193 -193 0
194 -194 0
-110 -205 0
-110 -206 0
205 -205 0
206 -206 0
6 -217 -121 0
-6 217 -121 0
6 217 -122 0
-6 -217 -122 0
21 -217 -133 0
-21 217 -133 0
21 217 -134 0
-21 -217 -134 0
36 -217 -145 0
-36 217 -145 0
36 217 -146 0
-36 -217 -146 0
51 -217 -157 0
-51 217 -157 0
51 217 -158 0
-51 -217 -158 0
66 -217 -169 0
-66 217 -169 0
66 217 -170 0
-66 -217 -170 0
81 -217 -181 0
-81 217 -181 0
81 217 -182 0
-81 -217 -182 0
96 -217 -193 0
-96 217 -193 0
96 217 -194 0
-96 -217 -194 0
111 -217 -205 0
-111 217 -205 0
111 217 -206 0
-111 -217 -206 0
7 -121 0
7 -122 0
121 -121 0
122 -122 0
22 -133 0
22 -134 0
133 -133 0
134 -134 0
37 -145 0
37 -146 0
145 -145 0
146 -146 0
52 -157 0
52 -158 0
157 -157 0
158 -158 0
67 -169 0
67 -170 0
169 -169 0
170 -170 0
82 -181 0
82 -182 0
181 -181 0
182 -182 0
97 -193 0
97 -194 0
193 -193 0
194 -194 0
112 -205 0
112 -206 0
205 -205 0
206 -206 0
8 -121 0
8 -122 0
121 -121 0
122 -122 0
23 -133 0
23 -134 0
133 -133 0
134 -134 0
38 -145 0
38 -146 0
145 -145 0
146 -146 0
53 -157 0
53 -158 0
157 -157 0
158 -158 0
68 -169 0
68 -170 0
169 -169 0
170 -170 0
83 -181 0
83 -182 0
181 -181 0
182 -182 0
98 -193 0
98 -194 0
193 -193 0
194 -194 0
113 -205 0
113 -206 0
205 -205 0
206 -206 0
9 -121 0
9 -122 0
121 -121 0
122 -122 0
24 -133 0
24 -134 0
133 -133 0
134 -134 0
39 -145 0
39 -146 0
145 -145 0
146 -146 0
54 -157 0
54 -158 0
157 -157 0
158 -158 0
69 -169 0
69 -170 0
169 -169 0
170 -170 0
84 -181 0
84 -182 0
181 -181 0
182 -182 0
99 -193 0
99 -194 0
193 -193 0
194 -194 0
114 -205 0
114 -206 0
205 -205 0
206 -206 0
10 -218 -121 0
-10 218 -121 0
10 218 -122 0
-10 -218 -122 0
25 -218 -133 0
-25 218 -133 0
25 218 -134 0
-25 -218 -134 0
40 -218 -145 0
-40 218 -145 0
40 218 -146 0
-40 -218 -146 0
55 -218 -157 0
-55 218 -157 0
55 218 -158 0
-55 -218 -158 0
70 -218 -169 0
-70 218 -169 0
70 218 -170 0
-70 -218 -170 0
85 -218 -181 0
-85 218 -181 0
85 218 -182 0
-85 -218 -182 0
100 -218 -193 0
-100 218 -193 0
100 218 -194 0
-100 -218 -194 0
115 -218 -205 0
-115 218 -205 0
115 218 -206 0
-115 -218 -206 0
11 -121 0
11 -122 0
121 -121 0
122 -122 0
26 -133 0
26 -134 0
133 -133 0
134 -134 0
41 -145 0
41 -146 0
145 -145 0
146 -146 0
56 -157 0
56 -158 0
157 -157 0
158 -158 0
71 -169 0
71 -170 0
169 -169 0
170 -170 0
86 -181 0
86 -182 0
181 -181 0
182 -182 0
101 -193 0
101 -194 0
193 -193 0
194 -194 0
116 -205 0
116 -206 0
205 -205 0
206 -206 0
12 -121 0
12 -122 0
121 -121 0
122 -122 0
27 -133 0
27 -134 0
133 -133 0
134 -134 0
42 -145 0
42 -146 0
145 -145 0
146 -146 0
57 -157 0
57 -158 0
157 -157 0
158 -158 0
72 -169 0
72 -170 0
169 -169 0
170 -170 0
87 -181 0
87 -182 0
181 -181 0
182 -182 0
102 -193 0
102 -194 0
193 -193 0
194 -194 0
117 -205 0
117 -206 0
205 -205 0
206 -206 0
13 -121 0
13 -122 0
121 -121 0
122 -122 0
28 -133 0
28 -134 0
133 -133 0
134 -134 0
43 -145 0
43 -146 0
145 -145 0
146 -146 0
58 -157 0
58 -158 0
157 -157 0
158 -158 0
73 -169 0
73 -170 0
169 -169 0
170 -170 0
88 -181 0
88 -182 0
181 -181 0
182 -182 0
103 -193 0
103 -194 0
193 -193 0
194 -194 0
118 -205 0
118 -206 0
205 -205 0
206 -206 0
14 -121 0
14 -122 0
121 -121 0
122 -122 0
29 -133 0
29 -134 0
133 -133 0
134 -134 0
44 -145 0
44 -146 0
145 -145 0
146 -146 0
59 -157 0
59 -158 0
157 -157 0
158 -158 0
74 -169 0
74 -170 0
169 -169 0
170 -170 0
89 -181 0
89 -182 0
181 -181 0
182 -182 0
104 -193 0
104 -194 0
193 -193 0
194 -194 0
119 -205 0
119 -206 0
205 -205 0
206 -206 0
15 -121 0
15 -122 0
121 -121 0
122 -122 0
30 -133 0
30 -134 0
133 -133 0
134 -134 0
45 -145 0
45 -146 0
145 -145 0
146 -146 0
60 -157 0
60 -158 0
157 -157 0
158 -158 0
75 -169 0
75 -170 0
169 -169 0
170 -170 0
90 -181 0
90 -182 0
181 -181 0
182 -182 0
105 -193 0
105 -194 0
193 -193 0
194 -194 0
120 -205 0
120 -206 0
205 -205 0
206 -206 0
-307 121 0
307 -121 0
-308 122 0
307 -122 0
-307 -121 0
-308 -122 0
-319 121 307 0
319 -121 0
319 -307 0
-320 122 308 0
320 -122 0
320 -308 0
-319 -133 0
-320 -134 0
-331 133 319 0
331 -133 0
331 -319 0
-332 134 320 0
332 -134 0
332 -320 0
-331 -145 0
-332 -146 0
-343 145 331 0
343 -145 0
343 -331 0
-344 146 332 0
344 -146 0
344 -332 0
-343 -157 0
-344 -158 0
-355 157 343 0
355 -157 0
355 -343 0
-356 158 344 0
356 -158 0
356 -344 0
-355 -169 0
-356 -170 0
-367 169 355 0
367 -169 0
367 -355 0
-368 170 356 0
368 -170 0
368 -356 0
-367 -181 0
-368 -182 0
-379 181 367 0
379 -181 0
379 -367 0
-380 182 368 0
380 -182 0
380 -368 0
-379 -193 0
-380 -194 0
-391 193 379 0
391 -193 0
391 -379 0
-392 194 380 0
392 -194 0
392 -380 0
-391 -205 0
-392 -206 0
391 0
392 0
1 -123 0
1 -124 0
123 -123 0
124 -124 0
16 -135 0
16 -136 0
135 -135 0
136 -136 0
31 -147 0
31 -148 0
147 -147 0
148 -148 0
46 -159 0
46 -160 0
159 -159 0
160 -160 0
61 -171 0
61 -172 0
171 -171 0
172 -172 0
76 -183 0
76 -184 0
183 -183 0
184 -184 0
91 -195 0
91 -196 0
195 -195 0
196 -196 0
106 -207 0
106 -208 0
207 -207 0
208 -208 0
-2 -123 0
-2 -124 0
123 -123 0
124 -124 0
-17 -135 0
-17 -136 0
135 -135 0
136 -136 0
-32 -147 0
-32 -148 0
147 -147 0
148 -148 0
-47 -159 0
-47 -160 0
159 -159 0
160 -160 0
-62 -171 0
-62 -172 0
171 -171 0
172 -172 0
-77 -183 0
-77 -184 0
183 -183 0
184 -184 0
-92 -195 0
-92 -196 0
195 -195 0
196 -196 0
-107 -207 0
-107 -208 0
207 -207 0
208 -208 0
3 -123 0
3 -124 0
123 -123 0
124 -124 0
18 -135 0
18 -136 0
135 -135 0
136 -136 0
33 -147 0
33 -148 0
147 -147 0
148 -148 0
48 -159 0
48 -160 0
159 -159 0
160 -160 0
63 -171 0
63 -172 0
171 -171 0
172 -172 0
78 -183 0
78 -184 0
183 -183 0
184 -184 0
93 -195 0
93 -196 0
195 -195 0
196 -196 0
108 -207 0
108 -208 0
207 -207 0
208 -208 0
-4 -123 0
-4 -124 0
123 -123 0
124 -124 0
-19 -135 0
-19 -136 0
135 -135 0
136 -136 0
-34 -147 0
-34 -148 0
147 -147 0
148 -148 0
-49 -159 0
-49 -160 0
159 -159 0
160 -160 0
-64 -171 0
-64 -172 0
171 -171 0
172 -172 0
-79 -183 0
-79 -184 0
183 -183 0
184 -184 0
-94 -195 0
-94 -196 0
195 -195 0
196 -196 0
-109 -207 0
-109 -208 0
207 -207 0
208 -208 0
-5 -123 0
-5 -124 0
123 -123 0
124 -124 0
-20 -135 0
-20 -136 0
135 -135 0
136 -136 0
-35 -147 0
-35 -148 0
147 -147 0
148 -148 0
-50 -159 0
-50 -160 0
159 -159 0
160 -160 0
-65 -171 0
-65 -172 0
171 -171 0
172 -172 0
-80 -183 0
-80 -184 0
183 -183 0
184 -184 0
-95 -195 0
-95 -196 0
195 -195 0
196 -196 0
-110 -207 0
-110 -208 0
207 -207 0
208 -208 0
-6 -123 0
-6 -124 0
123 -123 0
124 -124 0
-21 -135 0
-21 -136 0
135 -135 0
136 -136 0
-36 -147 0
-36 -148 0
147 -147 0
148 -148 0
-51 -159 0
-51 -160 0
159 -159 0
160 -160 0
-66 -171 0
-66 -172 0
171 -171 0
172 -172 0
-81 -183 0
-81 -184 0
183 -183 0
184 -184 0
-96 -195 0
-96 -196 0
195 -195 0
196 -196 0
-111 -207 0
-111 -208 0
207 -207 0
208 -208 0
7 -219 -123 0
-7 219 -123 0
7 219 -124 0
-7 -219 -124 0
22 -219 -135 0
-22 219 -135 0
22 219 -136 0
-22 -219 -136 0
37 -219 -147 0
-37 219 -147 0
37 219 -148 0
-37 -219 -148 0
52 -219 -159 0
-52 219 -159 0
52 219 -160 0
-52 -219 -160 0
67 -219 -171 0
-67 219 -171 0
67 219 -172 0
-67 -219 -172 0
82 -219 -183 0
-82 219 -183 0
82 219 -184 0
-82 -219 -184 0
97 -219 -195 0
-97 219 -195 0
97 219 -196 0
-97 -219 -196 0
112 -219 -207 0
-112 219 -207 0
112 219 -208 0
-112 -219 -208 0
8 -220 -123 0
-8 220 -123 0
8 220 -124 0
-8 -220 -124 0
23 -220 -135 0
-23 220 -135 0
23 220 -136 0
-23 -220 -136 0
38 -220 -147 0
-38 220 -147 0
38 220 -148 0
-38 -220 -148 0
53 -220 -159 0
-53 220 -159 0
53 220 -160 0
-53 -220 -160 0
68 -220 -171 0
-68 220 -171 0
68 220 -172 0
-68 -220 -172 0
83 -220 -183 0
-83 220 -183 0
83 220 -184 0
-83 -220 -184 0
98 -220 -195 0
-98 220 -195 0
98 220 -196 0
-98 -220 -196 0
113 -220 -207 0
-113 220 -207 0
113 220 -208 0
-113 -220 -208 0
9 -221 -123 0
-9 221 -123 0
9 221 -124 0
-9 -221 -124 0
24 -221 -135 0
-24 221 -135 0
24 221 -136 0
-24 -221 -136 0
39 -221 -147 0
-39 221 -147 0
39 221 -148 0
-39 -221 -148 0
54 -221 -159 0
-54 221 -159 0
54 221 -160 0
-54 -221 -160 0
69 -221 -171 0
-69 221 -171 0
69 221 -172 0
-69 -221 -172 0
84 -221 -183 0
-84 221 -183 0
84 221 -184 0
-84 -221 -184 0
99 -221 -195 0
-99 221 -195 0
99 221 -196 0
-99 -221 -196 0
114 -221 -207 0
-114 221 -207 0
114 221 -208 0
-114 -221 -208 0
-10 -123 0
-10 -124 0
123 -123 0
124 -124 0
-25 -135 0
-25 -136 0
135 -135 0
136 -136 0
-40 -147 0
-40 -148 0
147 -147 0
148 -148 0
-55 -159 0
-55 -160 0
159 -159 0
160 -160 0
-70 -171 0
-70 -172 0
171 -171 0
172 -172 0
-85 -183 0
-85 -184 0
183 -183 0
184 -184 0
-100 -195 0
-100 -196 0
195 -195 0
196 -196 0
-115 -207 0
-115 -208 0
207 -207 0
208 -208 0
11 -123 0
11 -124 0
123 -123 0
124 -124 0
26 -135 0
26 -136 0
135 -135 0
136 -136 0
41 -147 0
41 -148 0
147 -147 0
148 -148 0
56 -159 0
56 -160 0
159 -159 0
160 -160 0
71 -171 0
71 -172 0
171 -171 0
172 -172 0
86 -183 0
86 -184 0
183 -183 0
184 -184 0
101 -195 0
101 -196 0
195 -195 0
196 -196 0
116 -207 0
116 -208 0
207 -207 0
208 -208 0
12 -123 0
12 -124 0
123 -123 0
124 -124 0
27 -135 0
27 -136 0
135 -135 0
136 -136 0
42 -147 0
42 -148 0
147 -147 0
148 -148 0
57 -159 0
57 -160 0
159 -159 0
160 -160 0
72 -171 0
72 -172 0
171 -171 0
172 -172 0
87 -183 0
87 -184 0
183 -183 0
184 -184 0
102 -195 0
102 -196 0
195 -195 0
196 -196 0
117 -207 0
117 -208 0
207 -207 0
208 -208 0
-13 -123 0
-13 -124 0
123 -123 0
124 -124 0
-28 -135 0
-28 -136 0
135 -135 0
136 -136 0
-43 -147 0
-43 -148 0
147 -147 0
148 -148 0
-58 -159 0
-58 -160 0
159 -159 0
160 -160 0
-73 -171 0
-73 -172 0
171 -171 0
172 -172 0
-88 -183 0
-88 -184 0
183 -183 0
184 -184 0
-103 -195 0
-103 -196 0
195 -195 0
196 -196 0
-118 -207 0
-118 -208 0
207 -207 0
208 -208 0
14 -123 0
14 -124 0
123 -123 0
124 -124 0
29 -135 0
29 -136 0
135 -135 0
136 -136 0
44 -147 0
44 -148 0
147 -147 0
148 -148 0
59 -159 0
59 -160 0
159 -159 0
160 -160 0
74 -171 0
74 -172 0
171 -171 0
172 -172 0
89 -183 0
89 -184 0
183 -183 0
184 -184 0
104 -195 0
104 -196 0
195 -195 0
196 -196 0
119 -207 0
119 -208 0
207 -207 0
208 -208 0
15 -123 0
15 -124 0
123 -123 0
124 -124 0
30 -135 0
30 -136 0
135 -135 0
136 -136 0
45 -147 0
45 -148 0
147 -147 0
148 -148 0
60 -159 0
60 -160 0
159 -159 0
160 -160 0
75 -171 0
75 -172 0
171 -171 0
172 -172 0
90 -183 0
90 -184 0
183 -183 0
184 -184 0
105 -195 0
105 -196 0
195 -195 0
196 -196 0
120 -207 0
120 -208 0
207 -207 0
208 -208 0
-309 123 0
309 -123 0
-310 124 0
309 -124 0
-309 -123 0
-310 -124 0
-321 123 309 0
321 -123 0
321 -309 0
-322 124 310 0
322 -124 0
322 -310 0
-321 -135 0
-322 -136 0
-333 135 321 0
333 -135 0
333 -321 0
-334 136 322 0
334 -136 0
334 -322 0
-333 -147 0
-334 -148 0
-345 147 333 0
345 -147 0
345 -333 0
-346 148 334 0
346 -148 0
346 -334 0
-345 -159 0
-346 -160 0
-357 159 345 0
357 -159 0
357 -345 0
-358 160 346 0
358 -160 0
358 -346 0
-357 -171 0
-358 -172 0
-369 171 357 0
369 -171 0
369 -357 0
-370 172 358 0
370 -172 0
370 -358 0
-369 -183 0
-370 -184 0
-381 183 369 0
381 -183 0
381 -369 0
-382 184 370 0
382 -184 0
382 -370 0
-381 -195 0
-382 -196 0
-393 195 381 0
393 -195 0
393 -381 0
-394 196 382 0
394 -196 0
394 -382 0
-393 -207 0
-394 -208 0
393 0
394 0
1 -125 0
1 -126 0
125 -125 0
126 -126 0
16 -137 0
16 -138 0
137 -137 0
138 -138 0
31 -149 0
31 -150 0
149 -149 0
150 -150 0
46 -161 0
46 -162 0
161 -161 0
162 -162 0
61 -173 0
61 -174 0
173 -173 0
174 -174 0
76 -185 0
76 -186 0
185 -185 0
186 -186 0
91 -197 0
91 -198 0
197 -197 0
198 -198 0
106 -209 0
106 -210 0
209 -209 0
210 -210 0
-2 -125 0
-2 -126 0
125 -125 0
126 -126 0
-17 -137 0
-17 -138 0
137 -137 0
138 -138 0
-32 -149 0
-32 -150 0
149 -149 0
150 -150 0
-47 -161 0
-47 -162 0
161 -161 0
162 -162 0
-62 -173 0
-62 -174 0
173 -173 0
174 -174 0
-77 -185 0
-77 -186 0
185 -185 0
186 -186 0
-92 -197 0
-92 -198 0
197 -197 0
198 -198 0
-107 -209 0
-107 -210 0
209 -209 0
210 -210 0
3 -125 0
3 -126 0
125 -125 0
126 -126 0
18 -137 0
18 -138 0
137 -137 0
138 -138 0
33 -149 0
33 -150 0
149 -149 0
150 -150 0
48 -161 0
48 -162 0
161 -161 0
162 -162 0
63 -173 0
63 -174 0
173 -173 0
174 -174 0
78 -185 0
78 -186 0
185 -185 0
186 -186 0
93 -197 0
93 -198 0
197 -197 0
198 -198 0
108 -209 0
108 -210 0
209 -209 0
210 -210 0
-4 -125 0
-4 -126 0
125 -125 0
126 -126 0
-19 -137 0
-19 -138 0
137 -137 0
138 -138 0
-34 -149 0
-34 -150 0
149 -149 0
150 -150 0
-49 -161 0
-49 -162 0
161 -161 0
162 -162 0
-64 -173 0
-64 -174 0
173 -173 0
174 -174 0
-79 -185 0
-79 -186 0
185 -185 0
186 -186 0
-94 -197 0
-94 -198 0
197 -197 0
198 -198 0
-109 -209 0
-109 -210 0
209 -209 0
210 -210 0
-5 -125 0
-5 -126 0
125 -125 0
126 -126 0
-20 -137 0
-20 -138 0
137 -137 0
138 -138 0
-35 -149 0
-35 -150 0
149 -149 0
150 -150 0
-50 -161 0
-50 -162 0
161 -161 0
162 -162 0
-65 -173 0
-65 -174 0
173 -173 0
174 -174 0
-80 -185 0
-80 -186 0
185 -185 0
186 -186 0
-95 -197 0
-95 -198 0
197 -197 0
198 -198 0
-110 -209 0
-110 -210 0
209 -209 0
210 -210 0
-6 -125 0
-6 -126 0
125 -125 0
126 -126 0
-21 -137 0
-21 -138 0
137 -137 0
138 -138 0
-36 -149 0
-36 -150 0
149 -149 0
150 -150 0
-51 -161 0
-51 -162 0
161 -161 0
162 -162 0
-66 -173 0
-66 -174 0
173 -173 0
174 -174 0
-81 -185 0
-81 -186 0
185 -185 0
186 -186 0
-96 -197 0
-96 -198 0
197 -197 0
198 -198 0
-111 -209 0
-111 -210 0
209 -209 0
210 -210 0
7 -222 -125 0
-7 222 -125 0
7 222 -126 0
-7 -222 -126 0
22 -222 -137 0
-22 222 -137 0
22 222 -138 0
-22 -222 -138 0
37 -222 -149 0
-37 222 -149 0
37 222 -150 0
-37 -222 -150 0
52 -222 -161 0
-52 222 -161 0
52 222 -162 0
-52 -222 -162 0
67 -222 -173 0
-67 222 -173 0
67 222 -174 0
-67 -222 -174 0
82 -222 -185 0
-82 222 -185 0
82 222 -186 0
-82 -222 -186 0
97 -222 -197 0
-97 222 -197 0
97 222 -198 0
-97 -222 -198 0
112 -222 -209 0
-112 222 -209 0
112 222 -210 0
-112 -222 -210 0
8 -223 -125 0
-8 223 -125 0
8 223 -126 0
-8 -223 -126 0
23 -223 -137 0
-23 223 -137 0
23 223 -138 0
-23 -223 -138 0
38 -223 -149 0
-38 223 -149 0
38 223 -150 0
-38 -223 -150 0
53 -223 -161 0
-53 223 -161 0
53 223 -162 0
-53 -223 -162 0
68 -223 -173 0
-68 223 -173 0
68 223 -174 0
-68 -223 -174 0
83 -223 -185 0
-83 223 -185 0
83 223 -186 0
-83 -223 -186 0
98 -223 -197 0
-98 223 -197 0
98 223 -198 0
-98 -223 -198 0
113 -223 -209 0
-113 223 -209 0
113 223 -210 0
-113 -223 -210 0
9 -224 -125 0
-9 224 -125 0
9 224 -126 0
-9 -224 -126 0
24 -224 -137 0
-24 224 -137 0
24 224 -138 0
-24 -224 -138 0
39 -224 -149 0
-39 224 -149 0
39 224 -150 0
-39 -224 -150 0
54 -224 -161 0
-54 224 -161 0
54 224 -162 0
-54 -224 -162 0
69 -224 -173 0
-69 224 -173 0
69 224 -174 0
-69 -224 -174 0
84 -224 -185 0
-84 224 -185 0
84 224 -186 0
-84 -224 -186 0
99 -224 -197 0
-99 224 -197 0
99 224 -198 0
-99 -224 -198 0
114 -224 -209 0
-114 224 -209 0
114 224 -210 0
-114 -224 -210 0
10 -225 -125 0
-10 225 -125 0
10 225 -126 0
-10 -225 -126 0
25 -225 -137 0
-25 225 -137 0
25 225 -138 0
-25 -225 -138 0
40 -225 -149 0
-40 225 -149 0
40 225 -150 0
-40 -225 -150 0
55 -225 -161 0
-55 225 -161 0
55 225 -162 0
-55 -225 -162 0
70 -225 -173 0
-70 225 -173 0
70 225 -174 0
-70 -225 -174 0
85 -225 -185 0
-85 225 -185 0
85 225 -186 0
-85 -225 -186 0
100 -225 -197 0
-100 225 -197 0
100 225 -198 0
-100 -225 -198 0
115 -225 -209 0
-115 225 -209 0
115 225 -210 0
-115 -225 -210 0
11 -125 0
11 -126 0
125 -125 0
126 -126 0
26 -137 0
26 -138 0
137 -137 0
138 -138 0
41 -149 0
41 -150 0
149 -149 0
150 -150 0
56 -161 0
56 -162 0
161 -161 0
162 -162 0
71 -173 0
71 -174 0
173 -173 0
174 -174 0
86 -185 0
86 -186 0
185 -185 0
186 -186 0
101 -197 0
101 -198 0
197 -197 0
198 -198 0
116 -209 0
116 -210 0
209 -209 0
210 -210 0
12 -125 0
12 -126 0
125 -125 0
126 -126 0
27 -137 0
27 -138 0
137 -137 0
138 -138 0
42 -149 0
42 -150 0
149 -149 0
150 -150 0
57 -161 0
57 -162 0
161 -161 0
162 -162 0
72 -173 0
72 -174 0
173 -173 0
174 -174 0
87 -185 0
87 -186 0
185 -185 0
186 -186 0
102 -197 0
102 -198 0
197 -197 0
198 -198 0
117 -209 0
117 -210 0
209 -209 0
210 -210 0
13 -125 0
13 -126 0
125 -125 0
126 -126 0
28 -137 0
28 -138 0
137 -137 0
138 -138 0
43 -149 0
43 -150 0
149 -149 0
150 -150 0
58 -161 0
58 -162 0
161 -161 0
162 -162 0
73 -173 0
73 -174 0
173 -173 0
174 -174 0
88 -185 0
88 -186 0
185 -185 0
186 -186 0
103 -197 0
103 -198 0
197 -197 0
198 -198 0
118 -209 0
118 -210 0
209 -209 0
210 -210 0
14 -226 -125 0
-14 226 -125 0
14 226 -126 0
-14 -226 -126 0
29 -226 -137 0
-29 226 -137 0
29 226 -138 0
-29 -226 -138 0
44 -226 -149 0
-44 226 -149 0
44 226 -150 0
-44 -226 -150 0
59 -226 -161 0
-59 226 -161 0
59 226 -162 0
-59 -226 -162 0
74 -226 -173 0
-74 226 -173 0
74 226 -174 0
-74 -226 -174 0
89 -226 -185 0
-89 226 -185 0
89 226 -186 0
-89 -226 -186 0
104 -226 -197 0
-104 226 -197 0
104 226 -198 0
-104 -226 -198 0
119 -226 -209 0
-119 226 -209 0
119 226 -210 0
-119 -226 -210 0
15 -125 0
15 -126 0
125 -125 0
126 -126 0
30 -137 0
30 -138 0
137 -137 0
138 -138 0
45 -149 0
45 -150 0
149 -149 0
150 -150 0
60 -161 0
60 -162 0
161 -161 0
162 -162 0
75 -173 0
75 -174 0
173 -173 0
174 -174 0
90 -185 0
90 -186 0
185 -185 0
186 -186 0
105 -197 0
105 -198 0
197 -197 0
198 -198 0
120 -209 0
120 -210 0
209 -209 0
210 -210 0
-311 125 0
311 -125 0
-312 126 0
311 -126 0
-311 -125 0
-312 -126 0
-323 125 311 0
323 -125 0
323 -311 0
-324 126 312 0
324 -126 0
324 -312 0
-323 -137 0
-324 -138 0
-335 137 323 0
335 -137 0
335 -323 0
-336 138 324 0
336 -138 0
336 -324 0
-335 -149 0
-336 -150 0
-347 149 335 0
347 -149 0
347 -335 0
-348 150 336 0
348 -150 0
348 -336 0
-347 -161 0
-348 -162 0
-359 161 347 0
359 -161 0
359 -347 0
-360 162 348 0
360 -162 0
360 -348 0
-359 -173 0
-360 -174 0
-371 173 359 0
371 -173 0
371 -359 0
-372 174 360 0
372 -174 0
372 -360 0
-371 -185 0
-372 -186 0
-383 185 371 0
383 -185 0
383 -371 0
-384 186 372 0
384 -186 0
384 -372 0
-383 -197 0
-384 -198 0
-395 197 383 0
395 -197 0
395 -383 0
-396 198 384 0
396 -198 0
396 -384 0
-395 -209 0
-396 -210 0
395 0
396 0
1 -127 0
1 -128 0
127 -127 0
128 -128 0
16 -139 0
16 -140 0
139 -139 0
140 -140 0
31 -151 0
31 -152 0
151 -151 0
152 -152 0
46 -163 0
46 -164 0
163 -163 0
164 -164 0
61 -175 0
61 -176 0
175 -175 0
176 -176 0
76 -187 0
76 -188 0
187 -187 0
188 -188 0
91 -199 0
91 -200 0
199 -199 0
200 -200 0
106 -211 0
106 -212 0
211 -211 0
212 -212 0
-2 -127 0
-2 -128 0
127 -127 0
128 -128 0
-17 -139 0
-17 -140 0
139 -139 0
140 -140 0
-32 -151 0
-32 -152 0
151 -151 0
152 -152 0
-47 -163 0
-47 -164 0
163 -163 0
164 -164 0
-62 -175 0
-62 -176 0
175 -175 0
176 -176 0
-77 -187 0
-77 -188 0
187 -187 0
188 -188 0
-92 -199 0
-92 -200 0
199 -199 0
200 -200 0
-107 -211 0
-107 -212 0
211 -211 0
212 -212 0
3 -127 0
3 -128 0
127 -127 0
128 -128 0
18 -139 0
18 -140 0
139 -139 0
140 -140 0
33 -151 0
33 -152 0
151 -151 0
152 -152 0
48 -163 0
48 -164 0
163 -163 0
164 -164 0
63 -175 0
63 -176 0
175 -175 0
176 -176 0
78 -187 0
78 -188 0
187 -187 0
188 -188 0
93 -199 0
93 -200 0
199 -199 0
200 -200 0
108 -211 0
108 -212 0
211 -211 0
212 -212 0
-4 -127 0
-4 -128 0
127 -127 0
128 -128 0
-19 -139 0
-19 -140 0
139 -139 0
140 -140 0
-34 -151 0
-34 -152 0
151 -151 0
152 -152 0
-49 -163 0
-49 -164 0
163 -163 0
164 -164 0
-64 -175 0
-64 -176 0
175 -175 0
176 -176 0
-79 -187 0
-79 -188 0
187 -187 0
188 -188 0
-94 -199 0
-94 -200 0
199 -199 0
200 -200 0
-109 -211 0
-109 -212 0
211 -211 0
212 -212 0
-5 -127 0
-5 -128 0
127 -127 0
128 -128 0
-20 -139 0
-20 -140 0
139 -139 0
140 -140 0
-35 -151 0
-35 -152 0
151 -151 0
152 -152 0
-50 -163 0
-50 -164 0
163 -163 0
164 -164 0
-65 -175 0
-65 -176 0
175 -175 0
176 -176 0
-80 -187 0
-80 -188 0
187 -187 0
188 -188 0
-95 -199 0
-95 -200 0
199 -199 0
200 -200 0
-110 -211 0
-110 -212 0
211 -211 0
212 -212 0
6 -227 -127 0
-6 227 -127 0
6 227 -128 0
-6 -227 -128 0
21 -227 -139 0
-21 227 -139 0
21 227 -140 0
-21 -227 -140 0
36 -227 -151 0
-36 227 -151 0
36 227 -152 0
-36 -227 -152 0
51 -227 -163 0
-51 227 -163 0
51 227 -164 0
-51 -227 -164 0
66 -227 -175 0
-66 227 -175 0
66 227 -176 0
-66 -227 -176 0
81 -227 -187 0
-81 227 -187 0
81 227 -188 0
-81 -227 -188 0
96 -227 -199 0
-96 227 -199 0
96 227 -200 0
-96 -227 -200 0
111 -227 -211 0
-111 227 -211 0
111 227 -212 0
-111 -227 -212 0
7 -228 -127 0
-7 228 -127 0
7 228 -128 0
-7 -228 -128 0
22 -228 -139 0
-22 228 -139 0
22 228 -140 0
-22 -228 -140 0
37 -228 -151 0
-37 228 -151 0
37 228 -152 0
-37 -228 -152 0
52 -228 -163 0
-52 228 -163 0
52 228 -164 0
-52 -228 -164 0
67 -228 -175 0
-67 228 -175 0
67 228 -176 0
-67 -228 -176 0
82 -228 -187 0
-82 228 -187 0
82 228 -188 0
-82 -228 -188 0
97 -228 -199 0
-97 228 -199 0
97 228 -200 0
-97 -228 -200 0
112 -228 -211 0
-112 228 -211 0
112 228 -212 0
-112 -228 -212 0
8 -229 -127 0
-8 229 -127 0
8 229 -128 0
-8 -229 -128 0
23 -229 -139 0
-23 229 -139 0
23 229 -140 0
-23 -229 -140 0
38 -229 -151 0
-38 229 -151 0
38 229 -152 0
-38 -229 -152 0
53 -229 -163 0
-53 229 -163 0
53 229 -164 0
-53 -229 -164 0
68 -229 -175 0
-68 229 -175 0
68 229 -176 0
-68 -229 -176 0
83 -229 -187 0
-83 229 -187 0
83 229 -188 0
-83 -229 -188 0
98 -229 -199 0
-98 229 -199 0
98 229 -200 0
-98 -229 -200 0
113 -229 -211 0
-113 229 -211 0
113 229 -212 0
-113 -229 -212 0
9 -127 0
9 -128 0
127 -127 0
128 -128 0
24 -139 0
24 -140 0
139 -139 0
140 -140 0
39 -151 0
39 -152 0
151 -151 0
152 -152 0
54 -163 0
54 -164 0
163 -163 0
164 -164 0
69 -175 0
69 -176 0
175 -175 0
176 -176 0
84 -187 0
84 -188 0
187 -187 0
188 -188 0
99 -199 0
99 -200 0
199 -199 0
200 -200 0
114 -211 0
114 -212 0
211 -211 0
212 -212 0
-10 -127 0
-10 -128 0
127 -127 0
128 -128 0
-25 -139 0
-25 -140 0
139 -139 0
140 -140 0
-40 -151 0
-40 -152 0
151 -151 0
152 -152 0
-55 -163 0
-55 -164 0
163 -163 0
164 -164 0
-70 -175 0
-70 -176 0
175 -175 0
176 -176 0
-85 -187 0
-85 -188 0
187 -187 0
188 -188 0
-100 -199 0
-100 -200 0
199 -199 0
200 -200 0
-115 -211 0
-115 -212 0
211 -211 0
212 -212 0
11 -230 -127 0
-11 230 -127 0
11 230 -128 0
-11 -230 -128 0
26 -230 -139 0
-26 230 -139 0
26 230 -140 0
-26 -230 -140 0
41 -230 -151 0
-41 230 -151 0
41 230 -152 0
-41 -230 -152 0
56 -230 -163 0
-56 230 -163 0
56 230 -164 0
-56 -230 -164 0
71 -230 -175 0
-71 230 -175 0
71 230 -176 0
-71 -230 -176 0
86 -230 -187 0
-86 230 -187 0
86 230 -188 0
-86 -230 -188 0
101 -230 -199 0
-101 230 -199 0
101 230 -200 0
-101 -230 -200 0
116 -230 -211 0
-116 230 -211 0
116 230 -212 0
-116 -230 -212 0
12 -127 0
12 -128 0
127 -127 0
128 -128 0
27 -139 0
27 -140 0
139 -139 0
140 -140 0
42 -151 0
42 -152 0
151 -151 0
152 -152 0
57 -163 0
57 -164 0
163 -163 0
164 -164 0
72 -175 0
72 -176 0
175 -175 0
176 -176 0
87 -187 0
87 -188 0
187 -187 0
188 -188 0
102 -199 0
102 -200 0
199 -199 0
200 -200 0
117 -211 0
117 -212 0
211 -211 0
212 -212 0
13 -231 -127 0
-13 231 -127 0
13 231 -128 0
-13 -231 -128 0
28 -231 -139 0
-28 231 -139 0
28 231 -140 0
-28 -231 -140 0
43 -231 -151 0
-43 231 -151 0
43 231 -152 0
-43 -231 -152 0
58 -231 -163 0
-58 231 -163 0
58 231 -164 0
-58 -231 -164 0
73 -231 -175 0
-73 231 -175 0
73 231 -176 0
-73 -231 -176 0
88 -231 -187 0
-88 231 -187 0
88 231 -188 0
-88 -231 -188 0
103 -231 -199 0
-103 231 -199 0
103 231 -200 0
-103 -231 -200 0
118 -231 -211 0
-118 231 -211 0
118 231 -212 0
-118 -231 -212 0
14 -232 -127 0
-14 232 -127 0
14 232 -128 0
-14 -232 -128 0
29 -232 -139 0
-29 232 -139 0
29 232 -140 0
-29 -232 -140 0
44 -232 -151 0
-44 232 -151 0
44 232 -152 0
-44 -232 -152 0
59 -232 -163 0
-59 232 -163 0
59 232 -164 0
-59 -232 -164 0
74 -232 -175 0
-74 232 -175 0
74 232 -176 0
-74 -232 -176 0
89 -232 -187 0
-89 232 -187 0
89 232 -188 0
-89 -232 -188 0
104 -232 -199 0
-104 232 -199 0
104 232 -200 0
-104 -232 -200 0
119 -232 -211 0
-119 232 -211 0
119 232 -212 0
-119 -232 -212 0
15 -127 0
15 -128 0
127 -127 0
128 -128 0
30 -139 0
30 -140 0
139 -139 0
140 -140 0
45 -151 0
45 -152 0
151 -151 0
152 -152 0
60 -163 0
60 -164 0
163 -163 0
164 -164 0
75 -175 0
75 -176 0
175 -175 0
176 -176 0
90 -187 0
90 -188 0
187 -187 0
188 -188 0
105 -199 0
105 -200 0
199 -199 0
200 -200 0
120 -211 0
120 -212 0
211 -211 0
212 -212 0
-313 127 0
313 -127 0
-314 128 0
313 -128 0
-313 -127 0
-314 -128 0
-325 127 313 0
325 -127 0
325 -313 0
-326 128 314 0
326 -128 0
326 -314 0
-325 -139 0
-326 -140 0
-337 139 325 0
337 -139 0
337 -325 0
-338 140 326 0
338 -140 0
338 -326 0
-337 -151 0
-338 -152 0
-349 151 337 0
349 -151 0
349 -337 0
-350 152 338 0
350 -152 0
350 -338 0
-349 -163 0
-350 -164 0
-361 163 349 0
361 -163 0
361 -349 0
-362 164 350 0
362 -164 0
362 -350 0
-361 -175 0
-362 -176 0
-373 175 361 0
373 -175 0
373 -361 0
-374 176 362 0
374 -176 0
374 -362 0
-373 -187 0
-374 -188 0
-385 187 373 0
385 -187 0
385 -373 0
-386 188 374 0
386 -188 0
386 -374 0
-385 -199 0
-386 -200 0
-397 199 385 0
397 -199 0
397 -385 0
-398 200 386 0
398 -200 0
398 -386 0
-397 -211 0
-398 -212 0
397 0
398 0
1 -129 0
1 -130 0
129 -129 0
130 -130 0
16 -141 0
16 -142 0
141 -141 0
142 -142 0
31 -153 0
31 -154 0
153 -153 0
154 -154 0
46 -165 0
46 -166 0
165 -165 0
166 -166 0
61 -177 0
61 -178 0
177 -177 0
178 -178 0
76 -189 0
76 -190 0
189 -189 0
190 -190 0
91 -201 0
91 -202 0
201 -201 0
202 -202 0
106 -213 0
106 -214 0
213 -213 0
214 -214 0
-2 -129 0
-2 -130 0
129 -129 0
130 -130 0
-17 -141 0
-17 -142 0
141 -141 0
142 -142 0
-32 -153 0
-32 -154 0
153 -153 0
154 -154 0
-47 -165 0
-47 -166 0
165 -165 0
166 -166 0
-62 -177 0
-62 -178 0
177 -177 0
178 -178 0
-77 -189 0
-77 -190 0
189 -189 0
190 -190 0
-92 -201 0
-92 -202 0
201 -201 0
202 -202 0
-107 -213 0
-107 -214 0
213 -213 0
214 -214 0
3 -129 0
3 -130 0
129 -129 0
130 -130 0
18 -141 0
18 -142 0
141 -141 0
142 -142 0
33 -153 0
33 -154 0
153 -153 0
154 -154 0
48 -165 0
48 -166 0
165 -165 0
166 -166 0
63 -177 0
63 -178 0
177 -177 0
178 -178 0
78 -189 0
78 -190 0
189 -189 0
190 -190 0
93 -201 0
93 -202 0
201 -201 0
202 -202 0
108 -213 0
108 -214 0
213 -213 0
214 -214 0
4 -233 -129 0
-4 233 -129 0
4 233 -130 0
-4 -233 -130 0
19 -233 -141 0
-19 233 -141 0
19 233 -142 0
-19 -233 -142 0
34 -233 -153 0
-34 233 -153 0
34 233 -154 0
-34 -233 -154 0
49 -233 -165 0
-49 233 -165 0
49 233 -166 0
-49 -233 -166 0
64 -233 -177 0
-64 233 -177 0
64 233 -178 0
-64 -233 -178 0
79 -233 -189 0
-79 233 -189 0
79 233 -190 0
-79 -233 -190 0
94 -233 -201 0
-94 233 -201 0
94 233 -202 0
-94 -233 -202 0
109 -233 -213 0
-109 233 -213 0
109 233 -214 0
-109 -233 -214 0
5 -234 -129 0
-5 234 -129 0
5 234 -130 0
-5 -234 -130 0
20 -234 -141 0
-20 234 -141 0
20 234 -142 0
-20 -234 -142 0
35 -234 -153 0
-35 234 -153 0
35 234 -154 0
-35 -234 -154 0
50 -234 -165 0
-50 234 -165 0
50 234 -166 0
-50 -234 -166 0
65 -234 -177 0
-65 234 -177 0
65 234 -178 0
-65 -234 -178 0
80 -234 -189 0
-80 234 -189 0
80 234 -190 0
-80 -234 -190 0
95 -234 -201 0
-95 234 -201 0
95 234 -202 0
-95 -234 -202 0
110 -234 -213 0
-110 234 -213 0
110 234 -214 0
-110 -234 -214 0
6 -235 -129 0
-6 235 -129 0
6 235 -130 0
-6 -235 -130 0
21 -235 -141 0
-21 235 -141 0
21 235 -142 0
-21 -235 -142 0
36 -235 -153 0
-36 235 -153 0
36 235 -154 0
-36 -235 -154 0
51 -235 -165 0
-51 235 -165 0
51 235 -166 0
-51 -235 -166 0
66 -235 -177 0
-66 235 -177 0
66 235 -178 0
-66 -235 -178 0
81 -235 -189 0
-81 235 -189 0
81 235 -190 0
-81 -235 -190 0
96 -235 -201 0
-96 235 -201 0
96 235 -202 0
-96 -235 -202 0
111 -235 -213 0
-111 235 -213 0
111 235 -214 0
-111 -235 -214 0
-7 -129 0
-7 -130 0
129 -129 0
130 -130 0
-22 -141 0
-22 -142 0
141 -141 0
142 -142 0
-37 -153 0
-37 -154 0
153 -153 0
154 -154 0
-52 -165 0
-52 -166 0
165 -165 0
166 -166 0
-67 -177 0
-67 -178 0
177 -177 0
178 -178 0
-82 -189 0
-82 -190 0
189 -189 0
190 -190 0
-97 -201 0
-97 -202 0
201 -201 0
202 -202 0
-112 -213 0
-112 -214 0
213 -213 0
214 -214 0
8 -129 0
8 -130 0
129 -129 0
130 -130 0
23 -141 0
23 -142 0
141 -141 0
142 -142 0
38 -153 0
38 -154 0
153 -153 0
154 -154 0
53 -165 0
53 -166 0
165 -165 0
166 -166 0
68 -177 0
68 -178 0
177 -177 0
178 -178 0
83 -189 0
83 -190 0
189 -189 0
190 -190 0
98 -201 0
98 -202 0
201 -201 0
202 -202 0
113 -213 0
113 -214 0
213 -213 0
214 -214 0
9 -129 0
9 -130 0
129 -129 0
130 -130 0
24 -141 0
24 -142 0
141 -141 0
142 -142 0
39 -153 0
39 -154 0
153 -153 0
154 -154 0
54 -165 0
54 -166 0
165 -165 0
166 -166 0
69 -177 0
69 -178 0
177 -177 0
178 -178 0
84 -189 0
84 -190 0
189 -189 0
190 -190 0
99 -201 0
99 -202 0
201 -201 0
202 -202 0
114 -213 0
114 -214 0
213 -213 0
214 -214 0
-10 -129 0
-10 -130 0
129 -129 0
130 -130 0
-25 -141 0
-25 -142 0
141 -141 0
142 -142 0
-40 -153 0
-40 -154 0
153 -153 0
154 -154 0
-55 -165 0
-55 -166 0
165 -165 0
166 -166 0
-70 -177 0
-70 -178 0
177 -177 0
178 -178 0
-85 -189 0
-85 -190 0
189 -189 0
190 -190 0
-100 -201 0
-100 -202 0
201 -201 0
202 -202 0
-115 -213 0
-115 -214 0
213 -213 0
214 -214 0
11 -129 0
11 -130 0
129 -129 0
130 -130 0
26 -141 0
26 -142 0
141 -141 0
142 -142 0
41 -153 0
41 -154 0
153 -153 0
154 -154 0
56 -165 0
56 -166 0
165 -165 0
166 -166 0
71 -177 0
71 -178 0
177 -177 0
178 -178 0
86 -189 0
86 -190 0
189 -189 0
190 -190 0
101 -201 0
101 -202 0
201 -201 0
202 -202 0
116 -213 0
116 -214 0
213 -213 0
214 -214 0
12 -129 0
12 -130 0
129 -129 0
130 -130 0
27 -141 0
27 -142 0
141 -141 0
142 -142 0
42 -153 0
42 -154 0
153 -153 0
154 -154 0
57 -165 0
57 -166 0
165 -165 0
166 -166 0
72 -177 0
72 -178 0
177 -177 0
178 -178 0
87 -189 0
87 -190 0
189 -189 0
190 -190 0
102 -201 0
102 -202 0
201 -201 0
202 -202 0
117 -213 0
117 -214 0
213 -213 0
214 -214 0
13 -129 0
13 -130 0
129 -129 0
130 -130 0
28 -141 0
28 -142 0
141 -141 0
142 -142 0
43 -153 0
43 -154 0
153 -153 0
154 -154 0
58 -165 0
58 -166 0
165 -165 0
166 -166 0
73 -177 0
73 -178 0
177 -177 0
178 -178 0
88 -189 0
88 -190 0
189 -189 0
190 -190 0
103 -201 0
103 -202 0
201 -201 0
202 -202 0
118 -213 0
118 -214 0
213 -213 0
214 -214 0
14 -236 -129 0
-14 236 -129 0
14 236 -130 0
-14 -236 -130 0
29 -236 -141 0
-29 236 -141 0
29 236 -142 0
-29 -236 -142 0
44 -236 -153 0
-44 236 -153 0
44 236 -154 0
-44 -236 -154 0
59 -236 -165 0
-59 236 -165 0
59 236 -166 0
-59 -236 -166 0
74 -236 -177 0
-74 236 -177 0
74 236 -178 0
-74 -236 -178 0
89 -236 -189 0
-89 236 -189 0
89 236 -190 0
-89 -236 -190 0
104 -236 -201 0
-104 236 -201 0
104 236 -202 0
-104 -236 -202 0
119 -236 -213 0
-119 236 -213 0
119 236 -214 0
-119 -236 -214 0
15 -129 0
15 -130 0
129 -129 0
130 -130 0
30 -141 0
30 -142 0
141 -141 0
142 -142 0
45 -153 0
45 -154 0
153 -153 0
154 -154 0
60 -165 0
60 -166 0
165 -165 0
166 -166 0
75 -177 0
75 -178 0
177 -177 0
178 -178 0
90 -189 0
90 -190 0
189 -189 0
190 -190 0
105 -201 0
105 -202 0
201 -201 0
202 -202 0
120 -213 0
120 -214 0
213 -213 0
214 -214 0
-315 129 0
315 -129 0
-316 130 0
315 -130 0
-315 -129 0
-316 -130 0
-327 129 315 0
327 -129 0
327 -315 0
-328 130 316 0
328 -130 0
328 -316 0
-327 -141 0
-328 -142 0
-339 141 327 0
339 -141 0
339 -327 0
-340 142 328 0
340 -142 0
340 -328 0
-339 -153 0
-340 -154 0
-351 153 339 0
351 -153 0
351 -339 0
-352 154 340 0
352 -154 0
352 -340 0
-351 -165 0
-352 -166 0
-363 165 351 0
363 -165 0
363 -351 0
-364 166 352 0
364 -166 0
364 -352 0
-363 -177 0
-364 -178 0
-375 177 363 0
375 -177 0
375 -363 0
-376 178 364 0
376 -178 0
376 -364 0
-375 -189 0
-376 -190 0
-387 189 375 0
387 -189 0
387 -375 0
-388 190 376 0
388 -190 0
388 -376 0
-387 -201 0
-388 -202 0
-399 201 387 0
399 -201 0
399 -387 0
-400 202 388 0
400 -202 0
400 -388 0
-399 -213 0
-400 -214 0
399 0
400 0
1 -131 0
1 -132 0
131 -131 0
132 -132 0
16 -143 0
16 -144 0
143 -143 0
144 -144 0
31 -155 0
31 -156 0
155 -155 0
156 -156 0
46 -167 0
46 -168 0
167 -167 0
168 -168 0
61 -179 0
61 -180 0
179 -179 0
180 -180 0
76 -191 0
76 -192 0
191 -191 0
192 -192 0
91 -203 0
91 -204 0
203 -203 0
204 -204 0
106 -215 0
106 -216 0
215 -215 0
216 -216 0
-2 -131 0
-2 -132 0
131 -131 0
132 -132 0
-17 -143 0
-17 -144 0
143 -143 0
144 -144 0
-32 -155 0
-32 -156 0
155 -155 0
156 -156 0
-47 -167 0
-47 -168 0
167 -167 0
168 -168 0
-62 -179 0
-62 -180 0
179 -179 0
180 -180 0
-77 -191 0
-77 -192 0
191 -191 0
192 -192 0
-92 -203 0
-92 -204 0
203 -203 0
204 -204 0
-107 -215 0
-107 -216 0
215 -215 0
216 -216 0
3 -131 0
3 -132 0
131 -131 0
132 -132 0
18 -143 0
18 -144 0
143 -143 0
144 -144 0
33 -155 0
33 -156 0
155 -155 0
156 -156 0
48 -167 0
48 -168 0
167 -167 0
168 -168 0
63 -179 0
63 -180 0
179 -179 0
180 -180 0
78 -191 0
78 -192 0
191 -191 0
192 -192 0
93 -203 0
93 -204 0
203 -203 0
204 -204 0
108 -215 0
108 -216 0
215 -215 0
216 -216 0
-4 -131 0
-4 -132 0
131 -131 0
132 -132 0
-19 -143 0
-19 -144 0
143 -143 0
144 -144 0
-34 -155 0
-34 -156 0
155 -155 0
156 -156 0
-49 -167 0
-49 -168 0
167 -167 0
168 -168 0
-64 -179 0
-64 -180 0
179 -179 0
180 -180 0
-79 -191 0
-79 -192 0
191 -191 0
192 -192 0
-94 -203 0
-94 -204 0
203 -203 0
204 -204 0
-109 -215 0
-109 -216 0
215 -215 0
216 -216 0
-5 -131 0
-5 -132 0
131 -131 0
132 -132 0
-20 -143 0
-20 -144 0
143 -143 0
144 -144 0
-35 -155 0
-35 -156 0
155 -155 0
156 -156 0
-50 -167 0
-50 -168 0
167 -167 0
168 -168 0
-65 -179 0
-65 -180 0
179 -179 0
180 -180 0
-80 -191 0
-80 -192 0
191 -191 0
192 -192 0
-95 -203 0
-95 -204 0
203 -203 0
204 -204 0
-110 -215 0
-110 -216 0
215 -215 0
216 -216 0
6 -237 -131 0
-6 237 -131 0
6 237 -132 0
-6 -237 -132 0
21 -237 -143 0
-21 237 -143 0
21 237 -144 0
-21 -237 -144 0
36 -237 -155 0
-36 237 -155 0
36 237 -156 0
-36 -237 -156 0
51 -237 -167 0
-51 237 -167 0
51 237 -168 0
-51 -237 -168 0
66 -237 -179 0
-66 237 -179 0
66 237 -180 0
-66 -237 -180 0
81 -237 -191 0
-81 237 -191 0
81 237 -192 0
-81 -237 -192 0
96 -237 -203 0
-96 237 -203 0
96 237 -204 0
-96 -237 -204 0
111 -237 -215 0
-111 237 -215 0
111 237 -216 0
-111 -237 -216 0
7 -238 -131 0
-7 238 -131 0
7 238 -132 0
-7 -238 -132 0
22 -238 -143 0
-22 238 -143 0
22 238 -144 0
-22 -238 -144 0
37 -238 -155 0
-37 238 -155 0
37 238 -156 0
-37 -238 -156 0
52 -238 -167 0
-52 238 -167 0
52 238 -168 0
-52 -238 -168 0
67 -238 -179 0
-67 238 -179 0
67 238 -180 0
-67 -238 -180 0
82 -238 -191 0
-82 238 -191 0
82 238 -192 0
-82 -238 -192 0
97 -238 -203 0
-97 238 -203 0
97 238 -204 0
-97 -238 -204 0
112 -238 -215 0
-112 238 -215 0
112 238 -216 0
-112 -238 -216 0
8 -131 0
8 -132 0
131 -131 0
132 -132 0
23 -143 0
23 -144 0
143 -143 0
144 -144 0
38 -155 0
38 -156 0
155 -155 0
156 -156 0
53 -167 0
53 -168 0
167 -167 0
168 -168 0
68 -179 0
68 -180 0
179 -179 0
180 -180 0
83 -191 0
83 -192 0
191 -191 0
192 -192 0
98 -203 0
98 -204 0
203 -203 0
204 -204 0
113 -215 0
113 -216 0
215 -215 0
216 -216 0
9 -131 0
9 -132 0
131 -131 0
132 -132 0
24 -143 0
24 -144 0
143 -143 0
144 -144 0
39 -155 0
39 -156 0
155 -155 0
156 -156 0
54 -167 0
54 -168 0
167 -167 0
168 -168 0
69 -179 0
69 -180 0
179 -179 0
180 -180 0
84 -191 0
84 -192 0
191 -191 0
192 -192 0
99 -203 0
99 -204 0
203 -203 0
204 -204 0
114 -215 0
114 -216 0
215 -215 0
216 -216 0
-10 -131 0
-10 -132 0
131 -131 0
132 -132 0
-25 -143 0
-25 -144 0
143 -143 0
144 -144 0
-40 -155 0
-40 -156 0
155 -155 0
156 -156 0
-55 -167 0
-55 -168 0
167 -167 0
168 -168 0
-70 -179 0
-70 -180 0
179 -179 0
180 -180 0
-85 -191 0
-85 -192 0
191 -191 0
192 -192 0
-100 -203 0
-100 -204 0
203 -203 0
204 -204 0
-115 -215 0
-115 -216 0
215 -215 0
216 -216 0
11 -239 -131 0
-11 239 -131 0
11 239 -132 0
-11 -239 -132 0
26 -239 -143 0
-26 239 -143 0
26 239 -144 0
-26 -239 -144 0
41 -239 -155 0
-41 239 -155 0
41 239 -156 0
-41 -239 -156 0
56 -239 -167 0
-56 239 -167 0
56 239 -168 0
-56 -239 -168 0
71 -239 -179 0
-71 239 -179 0
71 239 -180 0
-71 -239 -180 0
86 -239 -191 0
-86 239 -191 0
86 239 -192 0
-86 -239 -192 0
101 -239 -203 0
-101 239 -203 0
101 239 -204 0
-101 -239 -204 0
116 -239 -215 0
-116 239 -215 0
116 239 -216 0
-116 -239 -216 0
12 -131 0
12 -132 0
131 -131 0
132 -132 0
27 -143 0
27 -144 0
143 -143 0
144 -144 0
42 -155 0
42 -156 0
155 -155 0
156 -156 0
57 -167 0
57 -168 0
167 -167 0
168 -168 0
72 -179 0
72 -180 0
179 -179 0
180 -180 0
87 -191 0
87 -192 0
191 -191 0
192 -192 0
102 -203 0
102 -204 0
203 -203 0
204 -204 0
117 -215 0
117 -216 0
215 -215 0
216 -216 0
13 -131 0
13 -132 0
131 -131 0
132 -132 0
28 -143 0
28 -144 0
143 -143 0
144 -144 0
43 -155 0
43 -156 0
155 -155 0
156 -156 0
58 -167 0
58 -168 0
167 -167 0
168 -168 0
73 -179 0
73 -180 0
179 -179 0
180 -180 0
88 -191 0
88 -192 0
191 -191 0
192 -192 0
103 -203 0
103 -204 0
203 -203 0
204 -204 0
118 -215 0
118 -216 0
215 -215 0
216 -216 0
14 -240 -131 0
-14 240 -131 0
14 240 -132 0
-14 -240 -132 0
29 -240 -143 0
-29 240 -143 0
29 240 -144 0
-29 -240 -144 0
44 -240 -155 0
-44 240 -155 0
44 240 -156 0
-44 -240 -156 0
59 -240 -167 0
-59 240 -167 0
59 240 -168 0
-59 -240 -168 0
74 -240 -179 0
-74 240 -179 0
74 240 -180 0
-74 -240 -180 0
89 -240 -191 0
-89 240 -191 0
89 240 -192 0
-89 -240 -192 0
104 -240 -203 0
-104 240 -203 0
104 240 -204 0
-104 -240 -204 0
119 -240 -215 0
-119 240 -215 0
119 240 -216 0
-119 -240 -216 0
15 -131 0
15 -132 0
131 -131 0
132 -132 0
30 -143 0
30 -144 0
143 -143 0
144 -144 0
45 -155 0
45 -156 0
155 -155 0
156 -156 0
60 -167 0
60 -168 0
167 -167 0
168 -168 0
75 -179 0
75 -180 0
179 -179 0
180 -180 0
90 -191 0
90 -192 0
191 -191 0
192 -192 0
105 -203 0
105 -204 0
203 -203 0
204 -204 0
120 -215 0
120 -216 0
215 -215 0
216 -216 0
-317 131 0
317 -131 0
-318 132 0
317 -132 0
-317 -131 0
-318 -132 0
-329 131 317 0
329 -131 0
329 -317 0
-330 132 318 0
330 -132 0
330 -318 0
-329 -143 0
-330 -144 0
-341 143 329 0
341 -143 0
341 -329 0
-342 144 330 0
342 -144 0
342 -330 0
-341 -155 0
-342 -156 0
-353 155 341 0
353 -155 0
353 -341 0
-354 156 342 0
354 -156 0
354 -342 0
-353 -167 0
-354 -168 0
-365 167 353 0
365 -167 0
365 -353 0
-366 168 354 0
366 -168 0
366 -354 0
-365 -179 0
-366 -180 0
-377 179 365 0
377 -179 0
377 -365 0
-378 180 366 0
378 -180 0
378 -366 0
-377 -191 0
-378 -192 0
-389 191 377 0
389 -191 0
389 -377 0
-390 192 378 0
390 -192 0
390 -378 0
-389 -203 0
-390 -204 0
-401 203 389 0
401 -203 0
401 -389 0
-402 204 390 0
402 -204 0
402 -390 0
-401 -215 0
-402 -216 0
401 0
402 0
